NAME : Problem-4-10-B
TYPE : HVRP
DIMENSION : 11
EDGE_WEIGHT_TYPE : EUC_2D

NODE_COORD_SECTION
1 30 40
5 20 26
6 40 30
9 31 62
11 51 21
13 31 32
14 5 25
16 36 16
17 52 41
20 13 13

DEMAND_SECTION
1 0
5 9
6 21
9 23
11 5
13 29
14 23
16 10
17 15
20 9

VEHICLE_TYPES
# id capacity fixed_cost var_cost
A 60  1000 1 
B 80  1500 1 
C 150 3000 1 
END_VEHICLE_TYPES

DEPOT_SECTION
1
-1
EOF
